17	4
14	13	14	12	
0	0	0	0	0	3	2	3	4	
6	0	0	0	9	2	17	17	
7	7	0	1	9	3	8	11	17	
7	10	3	1	8	3	5	6	17	
4	6	1	3	0	2	7	17	
250	0	7	5	0	1	9	
25	9	0	2	9	2	12	17	
25	2	0	0	3	1	17	
150	7	6	6	0	2	10	17	
50	2	0	0	0	2	17	17	
225	2	9	9	0	1	17	
100	4	2	7	7	3	13	16	17	
4	4	1	0	0	1	14	
6	0	9	2	8	3	15	17	17	
6	0	10	2	8	2	17	17	
8	7	10	0	9	1	17	
0	0	0	0	0	0	
